60

 0   1   2   3   1   2   3   4   2   3   4   5   3   4   5   6   4   5   6   7   5   6   7   8   6   7   8   9   7   8   9  10   8   9  10  11   9  10  11  12  10  11  12  13  11  12  13  14  12  13  14  15  13  14  15  16  14  15  16  17  
 1   0   1   2   2   1   2   3   3   2   3   4   4   3   4   5   5   4   5   6   6   5   6   7   7   6   7   8   8   7   8   9   9   8   9  10  10   9  10  11  11  10  11  12  12  11  12  13  13  12  13  14  14  13  14  15  15  14  15  16  
 2   1   0   1   3   2   1   2   4   3   2   3   5   4   3   4   6   5   4   5   7   6   5   6   8   7   6   7   9   8   7   8  10   9   8   9  11  10   9  10  12  11  10  11  13  12  11  12  14  13  12  13  15  14  13  14  16  15  14  15  
 3   2   1   0   4   3   2   1   5   4   3   2   6   5   4   3   7   6   5   4   8   7   6   5   9   8   7   6  10   9   8   7  11  10   9   8  12  11  10   9  13  12  11  10  14  13  12  11  15  14  13  12  16  15  14  13  17  16  15  14  
 1   2   3   4   0   1   2   3   1   2   3   4   2   3   4   5   3   4   5   6   4   5   6   7   5   6   7   8   6   7   8   9   7   8   9  10   8   9  10  11   9  10  11  12  10  11  12  13  11  12  13  14  12  13  14  15  13  14  15  16  
 2   1   2   3   1   0   1   2   2   1   2   3   3   2   3   4   4   3   4   5   5   4   5   6   6   5   6   7   7   6   7   8   8   7   8   9   9   8   9  10  10   9  10  11  11  10  11  12  12  11  12  13  13  12  13  14  14  13  14  15  
 3   2   1   2   2   1   0   1   3   2   1   2   4   3   2   3   5   4   3   4   6   5   4   5   7   6   5   6   8   7   6   7   9   8   7   8  10   9   8   9  11  10   9  10  12  11  10  11  13  12  11  12  14  13  12  13  15  14  13  14  
 4   3   2   1   3   2   1   0   4   3   2   1   5   4   3   2   6   5   4   3   7   6   5   4   8   7   6   5   9   8   7   6  10   9   8   7  11  10   9   8  12  11  10   9  13  12  11  10  14  13  12  11  15  14  13  12  16  15  14  13  
 2   3   4   5   1   2   3   4   0   1   2   3   1   2   3   4   2   3   4   5   3   4   5   6   4   5   6   7   5   6   7   8   6   7   8   9   7   8   9  10   8   9  10  11   9  10  11  12  10  11  12  13  11  12  13  14  12  13  14  15  
 3   2   3   4   2   1   2   3   1   0   1   2   2   1   2   3   3   2   3   4   4   3   4   5   5   4   5   6   6   5   6   7   7   6   7   8   8   7   8   9   9   8   9  10  10   9  10  11  11  10  11  12  12  11  12  13  13  12  13  14  
 4   3   2   3   3   2   1   2   2   1   0   1   3   2   1   2   4   3   2   3   5   4   3   4   6   5   4   5   7   6   5   6   8   7   6   7   9   8   7   8  10   9   8   9  11  10   9  10  12  11  10  11  13  12  11  12  14  13  12  13  
 5   4   3   2   4   3   2   1   3   2   1   0   4   3   2   1   5   4   3   2   6   5   4   3   7   6   5   4   8   7   6   5   9   8   7   6  10   9   8   7  11  10   9   8  12  11  10   9  13  12  11  10  14  13  12  11  15  14  13  12  
 3   4   5   6   2   3   4   5   1   2   3   4   0   1   2   3   1   2   3   4   2   3   4   5   3   4   5   6   4   5   6   7   5   6   7   8   6   7   8   9   7   8   9  10   8   9  10  11   9  10  11  12  10  11  12  13  11  12  13  14  
 4   3   4   5   3   2   3   4   2   1   2   3   1   0   1   2   2   1   2   3   3   2   3   4   4   3   4   5   5   4   5   6   6   5   6   7   7   6   7   8   8   7   8   9   9   8   9  10  10   9  10  11  11  10  11  12  12  11  12  13  
 5   4   3   4   4   3   2   3   3   2   1   2   2   1   0   1   3   2   1   2   4   3   2   3   5   4   3   4   6   5   4   5   7   6   5   6   8   7   6   7   9   8   7   8  10   9   8   9  11  10   9  10  12  11  10  11  13  12  11  12  
 6   5   4   3   5   4   3   2   4   3   2   1   3   2   1   0   4   3   2   1   5   4   3   2   6   5   4   3   7   6   5   4   8   7   6   5   9   8   7   6  10   9   8   7  11  10   9   8  12  11  10   9  13  12  11  10  14  13  12  11  
 4   5   6   7   3   4   5   6   2   3   4   5   1   2   3   4   0   1   2   3   1   2   3   4   2   3   4   5   3   4   5   6   4   5   6   7   5   6   7   8   6   7   8   9   7   8   9  10   8   9  10  11   9  10  11  12  10  11  12  13  
 5   4   5   6   4   3   4   5   3   2   3   4   2   1   2   3   1   0   1   2   2   1   2   3   3   2   3   4   4   3   4   5   5   4   5   6   6   5   6   7   7   6   7   8   8   7   8   9   9   8   9  10  10   9  10  11  11  10  11  12  
 6   5   4   5   5   4   3   4   4   3   2   3   3   2   1   2   2   1   0   1   3   2   1   2   4   3   2   3   5   4   3   4   6   5   4   5   7   6   5   6   8   7   6   7   9   8   7   8  10   9   8   9  11  10   9  10  12  11  10  11  
 7   6   5   4   6   5   4   3   5   4   3   2   4   3   2   1   3   2   1   0   4   3   2   1   5   4   3   2   6   5   4   3   7   6   5   4   8   7   6   5   9   8   7   6  10   9   8   7  11  10   9   8  12  11  10   9  13  12  11  10  
 5   6   7   8   4   5   6   7   3   4   5   6   2   3   4   5   1   2   3   4   0   1   2   3   1   2   3   4   2   3   4   5   3   4   5   6   4   5   6   7   5   6   7   8   6   7   8   9   7   8   9  10   8   9  10  11   9  10  11  12  
 6   5   6   7   5   4   5   6   4   3   4   5   3   2   3   4   2   1   2   3   1   0   1   2   2   1   2   3   3   2   3   4   4   3   4   5   5   4   5   6   6   5   6   7   7   6   7   8   8   7   8   9   9   8   9  10  10   9  10  11  
 7   6   5   6   6   5   4   5   5   4   3   4   4   3   2   3   3   2   1   2   2   1   0   1   3   2   1   2   4   3   2   3   5   4   3   4   6   5   4   5   7   6   5   6   8   7   6   7   9   8   7   8  10   9   8   9  11  10   9  10  
 8   7   6   5   7   6   5   4   6   5   4   3   5   4   3   2   4   3   2   1   3   2   1   0   4   3   2   1   5   4   3   2   6   5   4   3   7   6   5   4   8   7   6   5   9   8   7   6  10   9   8   7  11  10   9   8  12  11  10   9  
 6   7   8   9   5   6   7   8   4   5   6   7   3   4   5   6   2   3   4   5   1   2   3   4   0   1   2   3   1   2   3   4   2   3   4   5   3   4   5   6   4   5   6   7   5   6   7   8   6   7   8   9   7   8   9  10   8   9  10  11  
 7   6   7   8   6   5   6   7   5   4   5   6   4   3   4   5   3   2   3   4   2   1   2   3   1   0   1   2   2   1   2   3   3   2   3   4   4   3   4   5   5   4   5   6   6   5   6   7   7   6   7   8   8   7   8   9   9   8   9  10  
 8   7   6   7   7   6   5   6   6   5   4   5   5   4   3   4   4   3   2   3   3   2   1   2   2   1   0   1   3   2   1   2   4   3   2   3   5   4   3   4   6   5   4   5   7   6   5   6   8   7   6   7   9   8   7   8  10   9   8   9  
 9   8   7   6   8   7   6   5   7   6   5   4   6   5   4   3   5   4   3   2   4   3   2   1   3   2   1   0   4   3   2   1   5   4   3   2   6   5   4   3   7   6   5   4   8   7   6   5   9   8   7   6  10   9   8   7  11  10   9   8  
 7   8   9  10   6   7   8   9   5   6   7   8   4   5   6   7   3   4   5   6   2   3   4   5   1   2   3   4   0   1   2   3   1   2   3   4   2   3   4   5   3   4   5   6   4   5   6   7   5   6   7   8   6   7   8   9   7   8   9  10  
 8   7   8   9   7   6   7   8   6   5   6   7   5   4   5   6   4   3   4   5   3   2   3   4   2   1   2   3   1   0   1   2   2   1   2   3   3   2   3   4   4   3   4   5   5   4   5   6   6   5   6   7   7   6   7   8   8   7   8   9  
 9   8   7   8   8   7   6   7   7   6   5   6   6   5   4   5   5   4   3   4   4   3   2   3   3   2   1   2   2   1   0   1   3   2   1   2   4   3   2   3   5   4   3   4   6   5   4   5   7   6   5   6   8   7   6   7   9   8   7   8  
10   9   8   7   9   8   7   6   8   7   6   5   7   6   5   4   6   5   4   3   5   4   3   2   4   3   2   1   3   2   1   0   4   3   2   1   5   4   3   2   6   5   4   3   7   6   5   4   8   7   6   5   9   8   7   6  10   9   8   7  
 8   9  10  11   7   8   9  10   6   7   8   9   5   6   7   8   4   5   6   7   3   4   5   6   2   3   4   5   1   2   3   4   0   1   2   3   1   2   3   4   2   3   4   5   3   4   5   6   4   5   6   7   5   6   7   8   6   7   8   9  
 9   8   9  10   8   7   8   9   7   6   7   8   6   5   6   7   5   4   5   6   4   3   4   5   3   2   3   4   2   1   2   3   1   0   1   2   2   1   2   3   3   2   3   4   4   3   4   5   5   4   5   6   6   5   6   7   7   6   7   8  
10   9   8   9   9   8   7   8   8   7   6   7   7   6   5   6   6   5   4   5   5   4   3   4   4   3   2   3   3   2   1   2   2   1   0   1   3   2   1   2   4   3   2   3   5   4   3   4   6   5   4   5   7   6   5   6   8   7   6   7  
11  10   9   8  10   9   8   7   9   8   7   6   8   7   6   5   7   6   5   4   6   5   4   3   5   4   3   2   4   3   2   1   3   2   1   0   4   3   2   1   5   4   3   2   6   5   4   3   7   6   5   4   8   7   6   5   9   8   7   6  
 9  10  11  12   8   9  10  11   7   8   9  10   6   7   8   9   5   6   7   8   4   5   6   7   3   4   5   6   2   3   4   5   1   2   3   4   0   1   2   3   1   2   3   4   2   3   4   5   3   4   5   6   4   5   6   7   5   6   7   8  
10   9  10  11   9   8   9  10   8   7   8   9   7   6   7   8   6   5   6   7   5   4   5   6   4   3   4   5   3   2   3   4   2   1   2   3   1   0   1   2   2   1   2   3   3   2   3   4   4   3   4   5   5   4   5   6   6   5   6   7  
11  10   9  10  10   9   8   9   9   8   7   8   8   7   6   7   7   6   5   6   6   5   4   5   5   4   3   4   4   3   2   3   3   2   1   2   2   1   0   1   3   2   1   2   4   3   2   3   5   4   3   4   6   5   4   5   7   6   5   6  
12  11  10   9  11  10   9   8  10   9   8   7   9   8   7   6   8   7   6   5   7   6   5   4   6   5   4   3   5   4   3   2   4   3   2   1   3   2   1   0   4   3   2   1   5   4   3   2   6   5   4   3   7   6   5   4   8   7   6   5  
10  11  12  13   9  10  11  12   8   9  10  11   7   8   9  10   6   7   8   9   5   6   7   8   4   5   6   7   3   4   5   6   2   3   4   5   1   2   3   4   0   1   2   3   1   2   3   4   2   3   4   5   3   4   5   6   4   5   6   7  
11  10  11  12  10   9  10  11   9   8   9  10   8   7   8   9   7   6   7   8   6   5   6   7   5   4   5   6   4   3   4   5   3   2   3   4   2   1   2   3   1   0   1   2   2   1   2   3   3   2   3   4   4   3   4   5   5   4   5   6  
12  11  10  11  11  10   9  10  10   9   8   9   9   8   7   8   8   7   6   7   7   6   5   6   6   5   4   5   5   4   3   4   4   3   2   3   3   2   1   2   2   1   0   1   3   2   1   2   4   3   2   3   5   4   3   4   6   5   4   5  
13  12  11  10  12  11  10   9  11  10   9   8  10   9   8   7   9   8   7   6   8   7   6   5   7   6   5   4   6   5   4   3   5   4   3   2   4   3   2   1   3   2   1   0   4   3   2   1   5   4   3   2   6   5   4   3   7   6   5   4  
11  12  13  14  10  11  12  13   9  10  11  12   8   9  10  11   7   8   9  10   6   7   8   9   5   6   7   8   4   5   6   7   3   4   5   6   2   3   4   5   1   2   3   4   0   1   2   3   1   2   3   4   2   3   4   5   3   4   5   6  
12  11  12  13  11  10  11  12  10   9  10  11   9   8   9  10   8   7   8   9   7   6   7   8   6   5   6   7   5   4   5   6   4   3   4   5   3   2   3   4   2   1   2   3   1   0   1   2   2   1   2   3   3   2   3   4   4   3   4   5  
13  12  11  12  12  11  10  11  11  10   9  10  10   9   8   9   9   8   7   8   8   7   6   7   7   6   5   6   6   5   4   5   5   4   3   4   4   3   2   3   3   2   1   2   2   1   0   1   3   2   1   2   4   3   2   3   5   4   3   4  
14  13  12  11  13  12  11  10  12  11  10   9  11  10   9   8  10   9   8   7   9   8   7   6   8   7   6   5   7   6   5   4   6   5   4   3   5   4   3   2   4   3   2   1   3   2   1   0   4   3   2   1   5   4   3   2   6   5   4   3  
12  13  14  15  11  12  13  14  10  11  12  13   9  10  11  12   8   9  10  11   7   8   9  10   6   7   8   9   5   6   7   8   4   5   6   7   3   4   5   6   2   3   4   5   1   2   3   4   0   1   2   3   1   2   3   4   2   3   4   5  
13  12  13  14  12  11  12  13  11  10  11  12  10   9  10  11   9   8   9  10   8   7   8   9   7   6   7   8   6   5   6   7   5   4   5   6   4   3   4   5   3   2   3   4   2   1   2   3   1   0   1   2   2   1   2   3   3   2   3   4  
14  13  12  13  13  12  11  12  12  11  10  11  11  10   9  10  10   9   8   9   9   8   7   8   8   7   6   7   7   6   5   6   6   5   4   5   5   4   3   4   4   3   2   3   3   2   1   2   2   1   0   1   3   2   1   2   4   3   2   3  
15  14  13  12  14  13  12  11  13  12  11  10  12  11  10   9  11  10   9   8  10   9   8   7   9   8   7   6   8   7   6   5   7   6   5   4   6   5   4   3   5   4   3   2   4   3   2   1   3   2   1   0   4   3   2   1   5   4   3   2  
13  14  15  16  12  13  14  15  11  12  13  14  10  11  12  13   9  10  11  12   8   9  10  11   7   8   9  10   6   7   8   9   5   6   7   8   4   5   6   7   3   4   5   6   2   3   4   5   1   2   3   4   0   1   2   3   1   2   3   4  
14  13  14  15  13  12  13  14  12  11  12  13  11  10  11  12  10   9  10  11   9   8   9  10   8   7   8   9   7   6   7   8   6   5   6   7   5   4   5   6   4   3   4   5   3   2   3   4   2   1   2   3   1   0   1   2   2   1   2   3  
15  14  13  14  14  13  12  13  13  12  11  12  12  11  10  11  11  10   9  10  10   9   8   9   9   8   7   8   8   7   6   7   7   6   5   6   6   5   4   5   5   4   3   4   4   3   2   3   3   2   1   2   2   1   0   1   3   2   1   2  
16  15  14  13  15  14  13  12  14  13  12  11  13  12  11  10  12  11  10   9  11  10   9   8  10   9   8   7   9   8   7   6   8   7   6   5   7   6   5   4   6   5   4   3   5   4   3   2   4   3   2   1   3   2   1   0   4   3   2   1  
14  15  16  17  13  14  15  16  12  13  14  15  11  12  13  14  10  11  12  13   9  10  11  12   8   9  10  11   7   8   9  10   6   7   8   9   5   6   7   8   4   5   6   7   3   4   5   6   2   3   4   5   1   2   3   4   0   1   2   3  
15  14  15  16  14  13  14  15  13  12  13  14  12  11  12  13  11  10  11  12  10   9  10  11   9   8   9  10   8   7   8   9   7   6   7   8   6   5   6   7   5   4   5   6   4   3   4   5   3   2   3   4   2   1   2   3   1   0   1   2  
16  15  14  15  15  14  13  14  14  13  12  13  13  12  11  12  12  11  10  11  11  10   9  10  10   9   8   9   9   8   7   8   8   7   6   7   7   6   5   6   6   5   4   5   5   4   3   4   4   3   2   3   3   2   1   2   2   1   0   1  
17  16  15  14  16  15  14  13  15  14  13  12  14  13  12  11  13  12  11  10  12  11  10   9  11  10   9   8  10   9   8   7   9   8   7   6   8   7   6   5   7   6   5   4   6   5   4   3   5   4   3   2   4   3   2   1   3   2   1   0  

 0   1   0   1   0   1   1   1   1   0  19  19   1   5   5   0   0   0   0   0   1   0   0   3  40   0   0  69   0   7   0   0   0  39   1  48   0  54   1   1   0   1   0   1   1   1   0   1   0   1   1   1  20  10   1   1   0   0   0   0  
 1   0  28   0   0   0   1   0   1   0   0   1   3   0   0   0   0   0   1   0   4   1   0   0   0   0   1   1   0   1   0   0   0   0   8   0   0  22   0   0   1   0   0   0   0  27  76   0  70   0   7  56   0   0   1   1   0   0   0   0  
 0   1   0   0   0   0  84   0   0   0   0   1   0   0   2   0   0   0   0   0  59   0   0   0   0   0   0   5   0   0   0   0   0   0  40   0   0   0   0   0   0   5   0   0   1   1   1   0   0   1   0   9   0  14   0  47   0   0   0   0  
 1   0   0   0   3   0  62   0   0   0   6   0   0   0  13   0   0   0   0   0  54   0   0  53  76   3   0   0   0   0  69   0   0   1   0   2   0   1   0   0   0   1   0   1   0   0   0   0   0  94   0   0   1   0   0   0   0  98   0   0  
 0   0   0   1   0   1   0   1   0   1   1   0   0  80   0   0  21   1   0   1   0   0   1   1   0  40   0   0   0   0   1   1  91   1   0   9   0   1   1   2   0   0   0   1   0   0   0   1   0   0   0   0   1   0   0   0  20   1   0   0  
95   0   0   0   1   0  30   1   1   0   0  13  98   1   1   1   1   1   0  19   1   0   0   2   0   0   0   0   7   1   0   0   0   0   0   0   8   1  37   1   9  38   1  26   0   5   0   6  30   0  10   1   1   0   1   1   0   0   3   1  
 1  13   1   1   0   1   0   0  64   0  18   1   1   0   1   0   0   0   0   0   1   0   0  33  55   0   0   1   0   1   0   0   0   1  63   1   0  25   0   0   0   1   0   0   1  88   1   0   0   1   0  19   1   1   2  33   0   0   0   0  
 1   0   0   0   1   1   0   0   0  16   0   0   0   1   0   2   1   1   0  19   7   0   2   1   0   0   0   0   1   0   9   1   2   1   0   0   1   2   5   1   0   0   1   1   0   0   0   1   0   0   0   0   9   0   1   0   1   1   1   4  
23   1   0   0   0   1   1   0   0   0   0   3   1   1   1  71   0   0   1   2   1   1   0   1   0   0   4  74   1   1   0   0   0   0   1   0   1  43  15   1   1   1  29   0   0   1   0  82  64   0   1   1   1   0   1   1   0   0   0   1  
 0   0   0   0   1   0   0   1   0   0   0   0   0   1   0   1   1   1   0  65   0   0   1   0   0   0   0   0   8   0   1   1  86   0   0   0  66   0   1   1   0   0  62   0   0   0   0  78   0   0   0   0   0   0   0   0   5   0   1   0  
 1   0   0   1   1   0   2   0   0   0   0   0   0   0   1   0   0   0   0   0   2   0   0   1   1  91   0   0   0   0  56   0   0   1   0   1   0   0   0   0   0   1   0  47   0   0   0   0   0   1   0   0   1   0   0   0   0   1   0   0  
 1  35   1   0   0   1  35   0   1   0   0   0   1   0   6   0   0   0   0   0  17   0   0   3   2   0   0  80   0   1   0   0   0   0   1   0   0   1   0   0   1   9   0   0   1  18  39   0   1   8   1   7   1   1   3  30   0   0   0   0  
10  24   0   0   0  99  29   0  22   0   0  13   0   1   6   0   0   0   0   0   1   0   0   2  10   0   1   1   0   1   0   0   0   0   8   0   1   1   1   1   1   1   0   0   0  65   0  27   1   1  24  92   1   1  10  80   0   0   0   1  
 1   0   0   0   2   3   0  52  13   9   0   0  51   0   0   1   1   5   0  12  21   0   1  72   0   0   0   0  92   0  74   1   1   0   0   0   1  18   1   1   0   0   1   1   0   0   0   4   0   0   1   0   1   0   8   0   1   0   1  12  
84   0   1  53   0  20   1   0  88   0   1   2   1   0   0   0   0   0   0   0   1   0   0  10   1   1   0   1   0   1   0   0   0   1   4   1   0  18   0   0   0  36   0   1   1   1   0   0   0   1   0  25  16   1  48   1   0   0   0   0  
 0   0   0   0   0  61   0   7   1   1   0   0   0   1   0   0  34   0   5   1   0   0   0   0   0   0   1   0   1   0   0   0   0   0   0   0   6   1  22  76   6   0  14   0   0   0   0  45   1   0   1   0   0   0   6   0   0   0   1  18  
 0   0   0   0   1  58   0   2   0   1   0   0   0   1   0  59   0   1   0  76   0   0   1   0   0   0   0   0   7   0   1  13   1   0   0   0   1   1   1   1   0   0   1  52   0   0   0   1   0   0   0   0   0   0  60   0   1   0  15  33  
 0   0   0   0   1  19   0   1   0   1   0   0   0  83   0   0   4   0   0  40   0   0   1   0   0   0   0   0   1   0  21   1   3   5   0   0   8   3   1  94   0   0   1   1   0   0   0  38   0   0   0   0   3   0   0   0  44   4   3   0  
 0  16   0   0   0   0   0   0  94   0   0   0   0   0   0  58   0   0   0   0   0   3   0   0   0   0   1   0   0  28   0   0   0   0   0   0  89   0   0   0   1   0   0   0   0   0   0   0   1   0   3   0   0   0   0   0   0   0   0   1  
 0   0   0   0  74   1   0   1  31   1   0   0   0   1   0  23   6   1   0   0   0   0  14   0   0   0   0   0   1   0   0   1   1   0   0   0   1   3   4   3   8   0   1   3   0   0   0   1   0   0   1   0   0   0   1   0  19   0   1   3  
 1   1   1   1   0   1   9   1   1   0  18   1  78   1   1   0   0   0   0   0   0   0   0  71   1   0   0   1   0   2   0   0   0   2   2   1   0   1   2  50   0   4   0  33   1   9   0   6   1  74   1   1  10   1   1   7   0   0   0   0  
 0  40   0   0   0   0   0   0   1   0   0   0   0   0   0   0   0   0   4   0   0   0   0   0   0   0  88   0   0   1   0   0   0   0   0   0   0   0   0   0   1   0   0   0   0   0   0   0   1   0  10   0   0   0   0   0   0   0   0   0  
 0   0   0   0   1   0   0  10   0   1   0   0   0   1   0   0   3  90   0  22   0   0   0   0   0   0   0   0   0   0   1   1   1   1   0   0   0   1  10  43   0   0   0   1   0   0   0   6   0   0   0   0  13   0   0   0  41   1   0   0  
 2   0   0  21   1   1  28  80   8   0   8  13  65   1   1   0   0   0   0   0   1   0   0   0   3   1   0   0   0   0   7   0   0   1   0  31   0   1  91  25   0   1   0   2  73   1   0   1   0  45  47   6   1   3   1   1   0   0   0   0  
 1   0   0  61   0   0  38   0   0   0  20   1  63   0   1   0   0   0   0   0   1   0   0  31   0  44   0   0   0   0   0   0   0   2   0   1   0   4   0   0   0  12   0   1  81   0   0   0   0   1   0   1   1   2   1   1   0   1   0   0  
 0   0   0   1   1   0   0   0   0   0   1   0   0   0   1   0   0   0   0   0   0   0   0   4  49   0   0   0   0   0   1   0   0   1   0  20   0   0   0   0   0   1   0   1   0   0   0   0   0   5   0   0   4   0   0   0   0  61   0   0  
 0  27   0   0   0   0   0   0   1   0   0   0  32   0   0  33   0   0   1   0   0  10   0   0   0   0   0   0   0   7   0   0   0   0   0   0   0   0   0   0   1   0   0   0   0   0   0   0   1   0   2   0   0   0   4   0   0   0   0   8  
25   1   1   0   0   0   1   0   1   0   0   1   1   0   1   0   0   0   0   0   1   0   0   0   0   0   0   0   0   1   0   0   0   0  10   0   0   0   0   0   0   1   0   0   5  33  43   0   0   1   0   1   0   6   0   1   0   0   0   0  
 0   0   0   0   0   1   0   1  71  70   0   0   0   5   0   1   1   1   0   1   0   0   0   0   0   0   0   0   0   0   0  24   1   0   0   0   1   1   1   1   1   0   1   0   0   0   0  87   0   0   1   0   0   0   1   0   1   0   1   1  
 1  26   0   0   0   1   1   0  79   0   0   1  95   0   1   0   0   0   1   0   1  23   0   0   0   0   1   1   0   0   0   0   0   0   1   0   0  23   1   0   1   0   0   0   0   8   0   0  26   0  56   1   0   0  62   1   0   0   0  12  
 0   0   0   1   1   0   0   1   0   2   6   0   0   1   0   0   1  46   0   0   0   0   1   1   0   1   0   0   0   0   0   1   1   5   0   1   0  45   0   2   0   0   0  13   0   0   0   1   0   0   0   0   1   0   0   0   0  13   0   0  
 0   0   0   0  24   0   0   1   0   1   0   0   0  84   0   0  10   1   0  10   0   0   1   0   0   0   0   0   1   0   1   0  49   0   0   0   0   0   1   1   0   0  44  16   0   0   0  83   0   0   0   0   0   0   0   0   1  59  40   0  
 0   0   0   0   1   0   0   2   0  11   0   0   0   1   0   0  40   9   0   1   0   0  10   0   0   0   0   0   1   0  61   1   0   0   0   0   1   0   1  19   0   0  34   1   0   0   0   1   0   0   0   0   0   0   0   0   1   0  22   0  
 1   0   0   1   1   0  97   4   0   0   1   0   0   0  81   0   0   1   0   0  38   0   6   1  91   1   0   0   0   0  72   0   0   0   0   1   0   1   0   0   0   1   0   1   0   0   0   0   0   1   0   0  52   0   0   0   0   1   0   0  
 1   1   1   0   0   0   1   0   7   0   0  33   3   0  31   0   0   0   0   0  12   0   0   0   0   0   0  26   0   1   0   0   0   0   0   0   0   0   0   0   0   1   0   0  99  49   1   0   1   1   2   1   0   1   1  25   0   0   0   0  
 1   0   0   1   1   0   1   0   0   0   1   0   0   0   1   0   0   0   0   0  13   0   0   1   1   1   0   0   0   0   1   0   0   1   0   0   0   7   0   0   0   1   0   1   0   0   0   0   0   1   0   0  17   1   0   1   0   1   0   0  
 0   0   0   0   0   1   0   1  88   1   0   0   1   7   0   7   1   1  10   1   0   0   0   0   0   0   0   0   2   0   0   0   1   0   0   0   0  10   1   1  15   0   5   0   0   0   0   1   1   0  10   0   0   0  25   0  77   0   1   1  
 1   1   0   9   1   5   1   1  56   0   0   1   2  12   1   1  53   1   0  36  97   0   1   1  47   0   0   0   1  96   1   0   0  11   0   1  77   0   1   1   1   1   1  14   0   1   0   1   1   1   1   1  79   0   1  38   0   0   0   1  
 4   0   0   0  16   4   0   1   1   6   0   0   9   1   0   1   1   5   0   5   1   0   1   1   0   0   0   0  14  48   0   8   1   0   0   0   1   1   0   3  35   0   4   9   0   0   0   1  99   0   1   0   1   0   1   0   0   0   1   3  
 1   0   0   0   1   1   0  11   1   1   0   0   1   1   0   1  13   1   0  19   1   0   6   1   0   0   0   0  84   0   1   1   1   0   0   0  86   2   1   0  27   0  15   1   0   0   0   3   0   0   2   0  16   0  16   0   1   0  48   1  
 0   1   0   0   0   1   0   0  75   0   0  19  13   0   0   1   0   0   1  62   0  10   0   0   0   0   5   0  15   1   0   0   0   0   0   0   1   1   1   1   0   0   1   0   0  65   0  92   1   0  61   0   0   0   7   0   0   0   0   1  
14   0   7   2   0  29   1   0   1   0   1   1   1   0   1   0   0   0   0   0   1   0   0  12   1   1   0   3   0   0   0   0   0   1   1  15   0   1   0   0   0   0   0   1   1   1   0   0   0   1   0   1   1   1   1   1   0   0   0   0  
 0   0   0   0   0  46   0  96   2  23   0   0   0   1   0   1  10   1   0   1   0   0   0   0   0   0   0   0  11   0   0  88  11   0   0   0   1   1   1  94  10   0   0   0   0   0   0   1   0   0   1   0   0   0   1   0   1   0  15   1  
11   0   0  31   4   1   0   1   0   0   1   0   0   1   1   0   1   1   0   1   1   0   1   1   1   2   0   0   0   0   1   1  28   1   0   1   0   1   1   1   0   1   0   0   0   0   0   6   0   0   0   0  37   0   2   0   0   1   0   0  
 1   0   1   0   0   0   8   0   0   0   0   1   0   0   1   0   0   0   0   0  53   0   0  31   1   0   0   5   0   0   0   0   0   0   1   0   0   0   0   0   0  22   0   0   0   2   1   0   0   1   0  17   0  87   0   1   0   0   0   0  
22   1   1   0   0  53  67   0   1   0   0   1   1   0   1   0   0   0   0   0   6   0   0   1   0   0   0  26   0   3   0   0   0   0  33   0   0   1   0   0   1   1   0   0   2   0   1   0   1   2   1  18   4   3   1  10   0   0   0   0  
 0   1   1   0   0   0   1   0   0   0   0  66   0   0   0   0   0   0   0   0   0   0   0   0   0   0   0   1   0   0   0   0   0   0   1   0   0   0   0   0   0   0   0   0   1  12   0   0   0   1   0  12   0   1   0   1   0   0   0   0  
 2   0   0   0   1   4   0  87  17  71   0   0   1   2   0   1   1   3   0   1   1   0   1   1   0   0   0   0   1   0   2   1   1   0   0   0   1  10   1   1  50   0   1   1   0   0   0   0   0   0   1   0   1   0  13   0   1   0   1  45  
 0  10   0   0   0  12   0   0  13   0   0   3   4   0   0   1   0   0  15   0   8   1   0   0   0   0   1   0   0   1   0   0   0   0   2   0   1  33   1   0  33   0   0   0   0   1   0   0   0   0   1   1   0   0   1   2   0   0   0   1  
 1   0   8   9   0   0   1   0   0   0   1   3   1   0   5   0   0   0   0   0  46   0   0  11   1  98   0   1   0   0   0   0   0   1   1  28   0   7   0   0   0   1   0   0   1   1   1   0   0   0   0   4   8   1  76  17   0   0   0   0  
35   1   0   0   0   1   0   0   1   0   0  12   7   1   0   6   0   0   1   1   5   1   0   9   0   0   1   0  38   1   0   0   0   0   1   0   1  69  65   1  79   0  69   0   0   1   0   1   1   0   0  14  45   0  42   1   0   0   0   2  
 7   1   1   0   0  26   1   0  19   0   0   1  17   0   1   0   0   0   0   0   1   0   0   1   1   0   0   6   0  18   0   0   0   0  34   0   0   1   0   0   0   1   0   0  54  40   3   0  18  39   1   0   6  95  29   1   0   0   0   0  
 1   0   0   2  14   1   1  15   8   0  12   1   1  44  12   0   0   1   0   0   5   0   1   1   9   1   0   0   0   0   1   0   0   6   0  51   0   1   1   6   0   1   0   3   0   1   0  67   0  18  28  14   0   3  80  41   0  21   0   0  
 6   0   4   0   0   0   2   0   0   0   0  70   1   0   2   0   0   0   0   0   1   0   0  12  20   0   0  50   0   0   0   0   0   0  78   7   0   0   0   0   0   1   0   0   1  49  40   0   0   2   0   1   1   0   0   4   0   0   0   0  
71   1   0   0   0  46   1   1   1   0   0   1   1  15   1   1  40   0   0   1   1   0   0   1   4   0   1   0  10   1   0   0   0   0   1   0   1  52   1   1   1  28   9  31   0   1   0  31   1   1   1  18   1   0   0  13   0   0   0  38  
 1   1   1   0   0   1  10   0   1   0   0   6   1   0   1   0   0   0   0   0   1   0   0  55   1   0   0  43   0   3   0   0   0   0   1   1   0  14   0   0   0   1   0   0   1   1   9   0   1   1   6   1   4   3   1   0   0   0   0   0  
 0   0   0   0   1   0   0  86   0   1   0   0   0  12   0   0  40   1   0  13   0   0  87   0   0   0   0   0  19   0   0  20  20   0   0   0   1   0   0   1   0   0   1   0   0   0   0  31   0   0   0   0   0   0   0   0   0   0   1   0  
 0   0   0   1  19   0   0  98   0   0  62   0   0   0   0   0   0   1   0   0   0   0  34   0  23   1   0   0   0   0   1   6   0   8   0   1   0   0   0   0   0   0   0   1   0   0   0   0   0   0   0   0  66   0   0   0   0   0   0   0  
 0   0   0   0   0   8   0   3   0   1   0   0   0   2   0   1   2   1   0   1   0   0   0   0   0   0   0   0   8   0   0   1   4   0   0   0  48   0  81   1   0   0   2   0   0   0   0   3   0   0   0   0   0   0   0   0   1   0   0  15  
 0   0   0   0   0   1   0   1   1   0   0   0  30   1   0   1   3   0   7   1   0   0   0   0   0   0  38   0   1   5   0   0   0   0   0   0  32   1   1  14  34   0  10   0   0   0   0   1  22   0   1   0   0   0  17   0   0   0   1   0  
